node_cpu = array1d(1..20,[529, 570, 526, 778, 501, 568, 835, 553, 508, 589, 702, 912, 915, 692, 955, 967, 930, 811, 730, 581]);
node_memory = array1d(1..20,[782, 1185, 1874, 1851, 723, 1648, 1579, 1765, 1619, 756, 964, 1084, 1916, 1431, 971, 927, 1940, 699, 867, 792]);
process_memory = array1d(1..40,[83, 14, 182, 339, 98, 31, 251, 116, 95, 90, 444, 39, 34, 28, 301, 28, 445, 449, 370, 173, 303, 336, 27, 433, 97, 135, 432, 412, 445, 509, 454, 353, 221, 497, 330, 38, 315, 75, 117, 323]);
process_links = array2d(1..40,1..40,[false, true, true, false, false, false, false, true, true, true, false, false, false, false, false, true, true, true, true, true, true, false, true, false, true, true, true, true, false, false, false, false, false, false, true, true, true, true, true, true, false, false, false, true, true, false, false, true, false, true, true, true, false, false, false, false, false, true, true, true, false, true, true, true, false, false, true, false, false, false, false, true, true, true, true, true, false, false, true, false, false, true, true, true, false, true, true, true, false, true, false, true, false, false, true, true, false, false, true, false, true, false, true, false, false, true, false, true, true, true, true, true, true, true, true, false, true, false, false, false, false, false, false, false, true, false, true, true, false, false, true, true, true, false, false, false, false, false, false, false, false, false, false, false, true, true, true, true, false, true, false, true, true, true, false, true, false, true, true, true, false, true, true, true, false, false, true, false, true, true, true, false, true, false, false, false, true, false, true, false, true, false, false, true, false, true, true, false, true, false, false, false, false, true, true, true, false, false, true, true, false, true, true, false, true, true, false, false, true, false, true, true, true, true, true, false, false, false, true, false, true, true, true, false, true, false, false, true, true, true, false, true, true, false, true, true, true, true, true, true, false, false, false, true, false, false, true, false, false, true, true, true, false, false, true, false, false, false, false, true, true, false, false, true, true, false, true, false, false, true, false, false, true, true, false, false, true, false, false, true, true, false, true, false, false, false, false, true, true, true, true, false, false, false, false, true, false, false, true, false, false, false, true, false, true, true, true, true, true, false, false, true, true, false, true, false, true, true, true, true, true, true, true, true, true, false, true, false, false, false, true, false, true, true, true, true, false, true, true, false, true, true, false, true, true, false, false, false, false, false, false, false, true, false, true, false, false, true, true, true, true, true, false, true, false, true, false, true, true, true, false, false, false, false, true, true, false, false, true, true, true, false, true, false, true, true, false, true, false, true, true, false, true, true, false, true, false, false, true, true, false, false, false, false, false, true, false, false, true, false, true, true, false, true, true, false, true, true, false, true, true, true, true, false, true, true, false, true, true, true, true, true, true, false, false, false, true, false, true, true, true, false, true, false, true, false, false, true, true, true, false, true, true, true, true, false, true, true, true, true, true, false, false, false, false, true, false, false, false, true, true, false, false, true, false, false, true, false, false, true, true, false, true, true, false, true, true, false, false, false, false, true, true, false, true, true, true, false, true, true, true, true, true, false, true, true, false, false, false, true, false, false, true, false, false, true, true, true, true, false, true, true, true, false, false, true, false, false, true, true, true, true, true, false, true, false, false, false, false, true, false, false, false, true, true, true, true, true, true, false, false, true, false, false, true, true, true, true, true, false, false, false, true, true, false, true, false, false, false, true, true, false, false, true, true, false, true, false, false, false, false, true, false, true, true, true, false, true, true, false, false, false, false, true, false, false, false, false, true, true, false, false, true, false, false, false, true, true, true, true, true, false, true, false, false, true, false, false, false, false, false, true, false, false, true, false, false, false, true, false, true, false, true, false, true, false, false, true, true, false, false, true, false, false, false, true, false, false, false, true, false, true, true, false, false, true, false, false, true, false, false, false, false, false, false, false, false, false, false, true, false, true, false, true, true, false, true, false, false, true, true, true, false, true, true, false, false, true, false, false, true, true, false, false, true, true, true, false, false, false, false, false, true, false, false, false, true, true, true, false, true, true, true, true, true, false, false, false, true, true, false, false, false, false, true, false, true, true, true, true, false, false, false, true, true, false, true, true, true, true, true, false, false, true, false, true, true, true, true, false, true, true, true, true, true, true, false, false, true, false, true, true, false, true, true, true, true, false, false, false, true, true, true, true, true, false, false, false, true, false, true, false, false, true, false, true, false, true, false, false, false, true, false, true, true, true, true, true, false, true, false, true, false, true, false, false, true, false, false, true, true, false, false, true, false, false, true, false, true, false, false, true, true, false, false, true, false, true, false, false, true, true, false, true, true, false, true, true, false, true, true, false, false, false, false, false, true, true, false, false, true, true, false, true, true, true, false, true, true, true, true, false, false, false, true, false, false, false, true, false, true, false, false, true, false, true, true, false, false, true, true, false, false, false, false, false, true, false, false, true, true, true, true, true, false, true, false, false, true, true, true, true, false, true, true, false, true, true, true, false, false, false, false, true, true, false, false, false, true, false, false, false, true, false, false, true, true, true, true, true, false, false, true, true, true, false, false, false, true, true, true, false, true, true, true, true, true, true, true, false, true, false, true, false, true, true, false, false, false, false, true, true, false, false, false, true, true, false, true, true, false, true, false, true, false, true, false, false, true, true, false, false, false, false, false, false, false, true, false, true, false, true, false, false, false, false, true, true, false, false, true, true, true, true, true, false, true, true, true, false, true, true, true, false, true, false, true, false, false, true, true, true, true, false, true, true, false, true, false, true, true, true, true, false, false, false, false, false, false, false, true, false, false, true, false, false, true, false, true, false, true, false, true, false, false, true, true, true, true, false, false, false, false, false, false, false, true, false, true, false, false, true, false, true, true, true, true, false, true, false, true, false, true, true, false, false, true, true, false, true, false, false, true, true, true, false, false, false, true, false, false, false, false, false, false, true, false, true, true, false, false, false, false, false, false, false, true, true, true, true, true, false, false, false, false, true, false, true, false, false, true, false, true, false, true, true, true, false, false, false, true, true, true, true, true, true, true, false, true, true, false, true, true, true, true, false, false, false, true, false, true, true, true, true, true, false, false, true, false, true, false, false, true, false, true, true, true, false, false, false, true, true, true, true, false, false, false, true, true, false, true, true, false, true, true, false, false, true, false, false, true, true, false, true, true, true, true, false, false, false, true, true, false, true, false, true, true, true, true, false, true, false, true, true, true, false, false, true, false, true, true, false, true, true, false, true, false, true, false, false, true, false, true, false, false, true, false, true, false, false, true, false, false, false, false, true, true, false, true, false, false, false, true, true, false, false, false, true, false, true, false, true, false, false, false, false, true, true, false, false, false, false, false, true, true, true, true, false, true, true, true, true, false, false, true, true, false, true, false, true, false, true, false, false, false, true, false, false, false, true, true, false, false, false, false, false, true, false, false, true, true, false, true, true, false, true, false, true, false, false, true, true, true, true, true, true, true, false, true, false, false, false, false, true, false, false, false, false, true, false, true, true, true, false, true, true, false, true, false, false, true, false, false, false, false, false, true, true, false, false, false, false, true, false, false, false, false, false, false, false, false, true, false, true, true, false, false, false, true, false, false, true, true, false, true, true, true, false, true, false, false, false, true, false, false, true, false, true, true, true, true, false, false, true, true, true, true, false, true, true, true, false, true, false, false, false, false, false, true, false, true, false, false, true, true, false, false, true, true, true, true, false, true, true, false, false, true, true, false, false, false, false, true, false, false, false, true, false, true, false, true, false, false, true, true, false, false, false, false, true, false, false, false, false, true, false, false, false, true, true, true, true, true, true, true, false, false, true, false, false, false, true, false, false, true, true, false, true, true, false, true, false, true, true, true, true, false, false, true, false, false, false, true, true, true, false, true, false, false, false, true, false, true, false, true, true, false, true, true, false, false, false, false, false, false, true, false, false, true, false, false, false, false, false, true, false, false, false, true, false, false, false, false, false, false, false, true, true, true, false, false, true, true, false, false, false, true, false, true, true, false, true, false, true, true, true, true, true, false, false, true, false, true, true, true, true, true, false, true, false, true, false, true, false, false, false, true, true, false, true]);
topology = array2d(1..20,1..20,[false, true, false, true, true, true, true, true, false, false, false, false, false, false, false, false, false, true, false, false, false, true, true, true, true, true, false, false, false, true, false, true, true, true, false, true, true, false, true, false, true, true, false, false, true, true, true, true, true, false, false, true, false, true, true, true, true, true, false, true, false, false, true, false, false, true, false, false, true, false, false, true, false, true, true, false, true, false, true, false, true, false, false, true, false, false, true, true, false, true, false, false, false, false, true, true, false, true, true, false, true, true, true, false, true, false, true, false, true, true, true, false, false, false, false, false, false, true, true, false, true, true, true, true, false, false, true, false, true, false, false, false, true, false, false, false, true, true, true, true, true, false, false, false, true, false, true, false, true, true, true, false, false, false, true, true, true, false, true, true, true, false, true, true, false, true, false, false, false, false, false, true, false, false, false, false, false, false, true, false, false, false, true, true, true, false, true, false, false, false, true, false, false, true, false, true, false, true, false, true, true, false, false, false, true, true, false, true, true, false, true, false, true, false, false, false, true, false, false, false, false, false, false, true, true, true, true, true, false, false, true, true, true, false, true, false, true, false, false, true, true, true, false, false, false, false, false, false, false, false, true, false, false, false, false, true, true, true, false, true, false, false, false, false, true, true, false, true, false, false, true, true, false, true, true, false, true, true, true, true, true, true, false, false, false, true, false, false, false, false, true, false, true, true, true, false, true, false, false, true, false, false, false, false, false, true, true, true, false, false, false, false, false, true, false, true, true, true, false, false, false, true, true, true, true, true, false, false, true, false, true, false, true, false, false, true, false, false, true, false, true, false, true, true, false, false, false, true, true, true, true, true, false, true, true, true, false, false, false, true, true, true, false, false, true, true, false, true, false, false, false, true, false, true, false, false, true, false, false, true, false, false, false, true, false, true, true, false, false, true, false, false, false, false, true, true, false, true, false, true]);
num_processes = 40;
num_nodes = 20;
process_load = array1d(1..40,[392, 502, 177, 115, 579, 347, 236, 139, 277, 153, 212, 463, 564, 199, 257, 581, 496, 130, 167, 333, 492, 173, 331, 489, 316, 575, 304, 203, 573, 177, 284, 208, 239, 567, 278, 512, 134, 564, 471, 332]);
